param n := 60;
param c := 10000
param : V : p w :=
   0	 413	 403
   1	 297	 287
   2	 320	 310
   3	 437	 427
   4	 291	 281
   5	 302	 292
   6	 461	 451
   7	 275	 265
   8	 294	 284
   9	 460	 450
  10	 260	 250
  11	 310	 300
  12	 410	 400
  13	 288	 278
  14	 332	 322
  15	 384	 374
  16	 271	 261
  17	 375	 365
  18	 390	 380
  19	 286	 276
  20	 354	 344
  21	 474	 464
  22	 262	 252
  23	 294	 284
  24	 404	 394
  25	 279	 269
  26	 347	 337
  27	 385	 375
  28	 307	 297
  29	 338	 328
  30	 508	 498
  31	 260	 250
  32	 262	 252
  33	 384	 374
  34	 314	 304
  35	 332	 322
  36	 365	 355
  37	 286	 276
  38	 379	 369
  39	 495	 485
  40	 263	 253
  41	 272	 262
  42	 367	 357
  43	 285	 275
  44	 378	 368
  45	 434	 424
  46	 269	 259
  47	 327	 317
  48	 481	 471
  49	 260	 250
  50	 289	 279
  51	 398	 388
  52	 283	 273
  53	 349	 339
  54	 459	 449
  55	 285	 275
  56	 286	 276
  57	 415	 405
  58	 284	 274
  59	 331	 321
;

set E :=
   0	   1
   0	   3
   0	   4
   0	   6
   0	   7
   0	   8
   0	  10
   0	  12
   0	  14
   0	  15
   0	  16
   0	  18
   0	  19
   0	  21
   0	  23
   0	  31
   0	  37
   0	  41
   0	  42
   0	  43
   0	  44
   0	  45
   0	  46
   0	  50
   0	  53
   0	  59
   1	   3
   1	   9
   1	  12
   1	  14
   1	  16
   1	  17
   1	  18
   1	  21
   1	  27
   1	  31
   1	  32
   1	  33
   1	  34
   1	  36
   1	  39
   1	  40
   1	  45
   1	  52
   1	  53
   2	   6
   2	   8
   2	   9
   2	  14
   2	  15
   2	  20
   2	  21
   2	  29
   2	  31
   2	  32
   2	  36
   2	  37
   2	  40
   2	  42
   2	  43
   2	  45
   2	  51
   2	  53
   2	  55
   2	  58
   2	  59
   3	  11
   3	  16
   3	  22
   3	  23
   3	  24
   3	  28
   3	  32
   3	  33
   3	  34
   3	  40
   3	  41
   3	  42
   3	  43
   3	  44
   3	  46
   3	  51
   3	  57
   3	  58
   4	   5
   4	   7
   4	   9
   4	  15
   4	  17
   4	  20
   4	  21
   4	  22
   4	  23
   4	  24
   4	  25
   4	  27
   4	  29
   4	  30
   4	  36
   4	  39
   4	  40
   4	  41
   4	  43
   4	  46
   4	  47
   4	  48
   4	  50
   4	  53
   4	  54
   4	  55
   4	  56
   5	  11
   5	  15
   5	  17
   5	  18
   5	  23
   5	  26
   5	  28
   5	  31
   5	  36
   5	  38
   5	  39
   5	  40
   5	  41
   5	  43
   5	  45
   5	  47
   5	  50
   5	  51
   5	  55
   5	  56
   5	  59
   6	   8
   6	  12
   6	  14
   6	  15
   6	  16
   6	  19
   6	  20
   6	  22
   6	  23
   6	  27
   6	  30
   6	  33
   6	  35
   6	  36
   6	  37
   6	  40
   6	  41
   6	  42
   6	  43
   6	  48
   6	  51
   6	  52
   6	  55
   6	  58
   6	  59
   7	   8
   7	  13
   7	  14
   7	  15
   7	  16
   7	  17
   7	  18
   7	  22
   7	  23
   7	  25
   7	  26
   7	  28
   7	  31
   7	  34
   7	  42
   7	  45
   7	  46
   7	  47
   7	  48
   7	  53
   7	  55
   7	  58
   7	  59
   8	  13
   8	  14
   8	  16
   8	  18
   8	  23
   8	  24
   8	  25
   8	  27
   8	  29
   8	  30
   8	  34
   8	  35
   8	  36
   8	  39
   8	  40
   8	  42
   8	  44
   8	  46
   8	  47
   8	  50
   8	  53
   8	  55
   8	  57
   8	  59
   9	  18
   9	  21
   9	  22
   9	  25
   9	  26
   9	  27
   9	  28
   9	  32
   9	  33
   9	  34
   9	  36
   9	  40
   9	  42
   9	  43
   9	  44
   9	  52
   9	  53
   9	  57
  10	  13
  10	  17
  10	  21
  10	  24
  10	  32
  10	  33
  10	  34
  10	  37
  10	  38
  10	  42
  10	  43
  10	  48
  10	  49
  10	  51
  10	  54
  10	  56
  10	  57
  11	  12
  11	  13
  11	  16
  11	  18
  11	  21
  11	  22
  11	  24
  11	  29
  11	  30
  11	  32
  11	  33
  11	  34
  11	  35
  11	  36
  11	  40
  11	  43
  11	  47
  11	  49
  11	  52
  11	  54
  11	  58
  12	  13
  12	  14
  12	  15
  12	  16
  12	  18
  12	  20
  12	  21
  12	  23
  12	  25
  12	  26
  12	  28
  12	  29
  12	  30
  12	  40
  12	  41
  12	  43
  12	  48
  12	  52
  12	  53
  12	  56
  12	  57
  13	  14
  13	  16
  13	  17
  13	  19
  13	  21
  13	  22
  13	  24
  13	  28
  13	  31
  13	  34
  13	  36
  13	  37
  13	  38
  13	  40
  13	  44
  13	  48
  13	  49
  13	  51
  13	  54
  13	  56
  13	  57
  13	  59
  14	  21
  14	  22
  14	  25
  14	  27
  14	  28
  14	  29
  14	  31
  14	  33
  14	  34
  14	  38
  14	  40
  14	  42
  14	  43
  14	  46
  14	  49
  14	  51
  14	  56
  14	  57
  15	  21
  15	  23
  15	  26
  15	  28
  15	  32
  15	  35
  15	  38
  15	  39
  15	  42
  15	  44
  15	  47
  15	  48
  15	  52
  15	  55
  15	  56
  15	  57
  16	  17
  16	  20
  16	  21
  16	  22
  16	  23
  16	  26
  16	  32
  16	  33
  16	  35
  16	  36
  16	  39
  16	  40
  16	  44
  16	  45
  16	  46
  16	  48
  16	  50
  16	  53
  16	  54
  16	  56
  17	  21
  17	  23
  17	  24
  17	  25
  17	  28
  17	  29
  17	  32
  17	  33
  17	  37
  17	  39
  17	  45
  17	  47
  17	  49
  17	  52
  17	  53
  17	  56
  17	  58
  17	  59
  18	  24
  18	  28
  18	  31
  18	  32
  18	  33
  18	  35
  18	  37
  18	  39
  18	  40
  18	  41
  18	  42
  18	  44
  18	  47
  18	  54
  18	  57
  18	  59
  19	  20
  19	  23
  19	  31
  19	  34
  19	  36
  19	  37
  19	  38
  19	  39
  19	  40
  19	  41
  19	  42
  19	  43
  19	  45
  19	  48
  19	  50
  19	  51
  19	  52
  19	  55
  19	  56
  19	  58
  19	  59
  20	  22
  20	  23
  20	  25
  20	  30
  20	  33
  20	  34
  20	  35
  20	  37
  20	  39
  20	  42
  20	  43
  20	  45
  20	  50
  20	  53
  20	  54
  20	  56
  20	  59
  21	  22
  21	  24
  21	  25
  21	  31
  21	  33
  21	  34
  21	  42
  21	  43
  21	  49
  21	  51
  21	  52
  21	  53
  21	  55
  21	  57
  22	  23
  22	  25
  22	  26
  22	  30
  22	  34
  22	  35
  22	  36
  22	  37
  22	  39
  22	  41
  22	  52
  22	  55
  22	  58
  22	  59
  23	  25
  23	  29
  23	  35
  23	  36
  23	  37
  23	  38
  23	  39
  23	  41
  23	  42
  23	  48
  23	  52
  23	  53
  24	  26
  24	  28
  24	  29
  24	  30
  24	  31
  24	  35
  24	  37
  24	  38
  24	  39
  24	  40
  24	  45
  24	  50
  24	  54
  24	  56
  24	  58
  25	  27
  25	  28
  25	  29
  25	  35
  25	  37
  25	  38
  25	  39
  25	  40
  25	  45
  25	  46
  25	  48
  25	  51
  25	  52
  25	  53
  25	  54
  25	  55
  25	  56
  25	  59
  26	  30
  26	  32
  26	  35
  26	  38
  26	  40
  26	  41
  26	  56
  26	  57
  26	  58
  27	  29
  27	  31
  27	  32
  27	  34
  27	  36
  27	  40
  27	  41
  27	  43
  27	  44
  27	  45
  27	  47
  27	  48
  27	  49
  27	  51
  27	  53
  27	  58
  27	  59
  28	  29
  28	  31
  28	  33
  28	  35
  28	  36
  28	  38
  28	  39
  28	  42
  28	  47
  28	  49
  28	  50
  28	  51
  28	  52
  28	  53
  28	  59
  29	  30
  29	  32
  29	  36
  29	  38
  29	  40
  29	  43
  29	  44
  29	  53
  29	  54
  29	  55
  29	  59
  30	  32
  30	  35
  30	  36
  30	  39
  30	  40
  30	  43
  30	  45
  30	  47
  30	  50
  30	  53
  30	  54
  30	  56
  30	  58
  31	  38
  31	  39
  31	  40
  31	  49
  31	  51
  31	  57
  31	  58
  32	  35
  32	  37
  32	  41
  32	  43
  32	  44
  32	  51
  32	  52
  32	  54
  32	  56
  33	  34
  33	  35
  33	  36
  33	  37
  33	  38
  33	  45
  33	  47
  33	  49
  33	  50
  33	  51
  33	  52
  33	  55
  34	  37
  34	  39
  34	  42
  34	  44
  34	  48
  34	  54
  34	  56
  35	  41
  35	  45
  35	  47
  35	  48
  35	  50
  35	  51
  35	  55
  35	  59
  36	  37
  36	  38
  36	  41
  36	  42
  36	  47
  36	  49
  36	  50
  36	  55
  36	  57
  37	  38
  37	  40
  37	  45
  37	  47
  37	  52
  37	  55
  37	  56
  37	  58
  37	  59
  38	  40
  38	  42
  38	  43
  38	  49
  38	  52
  38	  53
  39	  40
  39	  47
  39	  51
  39	  53
  39	  55
  40	  41
  40	  43
  40	  44
  40	  47
  40	  50
  40	  51
  40	  52
  40	  56
  40	  57
  41	  42
  41	  43
  41	  51
  41	  54
  41	  55
  41	  59
  42	  45
  42	  48
  42	  52
  42	  55
  42	  56
  42	  59
  43	  45
  43	  46
  43	  47
  43	  49
  44	  47
  44	  48
  44	  52
  44	  55
  44	  58
  44	  59
  45	  49
  45	  51
  45	  52
  45	  54
  46	  48
  46	  51
  46	  56
  46	  58
  46	  59
  47	  48
  47	  49
  47	  50
  47	  52
  47	  53
  47	  57
  48	  51
  48	  55
  48	  56
  49	  50
  49	  53
  49	  55
  49	  56
  49	  58
  49	  59
  50	  51
  50	  52
  50	  53
  50	  54
  50	  56
  51	  53
  51	  55
  51	  56
  52	  53
  52	  54
  52	  56
  52	  57
  52	  59
  53	  55
  53	  57
  53	  58
  54	  56
  54	  57
  54	  58
  54	  59
  55	  56
  55	  57
  55	  59
  56	  57
  56	  58
  57	  58
;
